50
    1   496   556
    2   492   509
    3   319   287
    4   170   132
    5   510   561
    6   395   434
    7   450   498
    8   320   316
    9    79    90
   10   573   515
   11   335   352
   12    51   100
   13   150   113
   14   339   381
   15     9    25
   16   335   381
   17   316   306
   18   358   369
   19   515   550
   20   460   479
   21   329   378
   22   202   144
   23   550   521
   24   351   319
   25   237   225
   26    51   105
   27   593   535
   28   346   336
   29   332   282
   30   322   328
   31   163   142
   32   529   556
   33   588   552
   34   123   110
   35   214   201
   36   478   466
   37   258   225
   38    10    13
   39     1    25
   40   167   151
   41   235   188
   42   578   578
   43   120   123
   44   438   470
   45   249   220
   46   505   491
   47   308   302
   48   432   482
   49   230   204
   50    28    41
601
